n_couriers = 6;
n_items = 8;
max_load = [200, 100, 200, 300, 200, 100];
size_item = [16, 25, 21, 14, 19, 14, 6, 20];
all_distances = [|0, 113, 57, 28, 101, 154, 24, 36, 161|113,  0, 80, 131, 22, 41, 127, 87, 48|57, 60,  0, 85, 82, 101, 81, 53, 106|28, 141, 83,  0, 129, 182,  4, 64, 189|101, 22, 82, 129,  0, 55, 125, 65, 66|154, 41, 99, 172, 55,  0, 168, 118, 11|32, 137, 81,  4, 125, 178,  0, 60, 185|36, 77, 63, 64, 65, 118, 60,  0, 125|161, 48, 126, 179, 60, 58, 175, 125,  0|];